(set-logic LIA)
(synth-fun next ((brake Int) (distance Int) (speed Int) (throttle Int) (ignition Bool) (time Int) ) Int
	((Start Int) (Var Int) (StartBool Bool))
	((Start Int (
				 1
				 3
				 6
				 (ite StartBool Start Start)))

	(Var Int (
			 0
			 1
			 2
			 4
			 8
			 479
			 1486
			 brake
			 distance
			 speed
			 throttle
			 time
			 (+ Var Var)						
			 (- Var Var)						
			 (* Var Var)))

	(StartBool Bool (
				 	 ignition
					(= Var Var)						
					(>= Var Var)						
					(<= Var Var)						
					(and StartBool StartBool)			
					(or  StartBool StartBool)				
					(not StartBool)))))

(constraint (= (next 0 0 0 0 false 1613 ) 1))
(constraint (= (next 0 0 0 0 false 1889 ) 3))
(constraint (= (next 0 1 13 1 true 957 ) 6))

(check-synth)
